(set-logic QF_S)
(declare-fun var0 () String)
(assert (str.in.re var0 (re.++ (re.union (re.+ (str.to.re "0")) (re.+ (str.to.re "111"))) (re.++ (re.union (re.* (str.to.re "22")) (re.* (str.to.re "333"))) (re.++ (re.* (re.union (str.to.re "444") (str.to.re "55"))) (re.++ (re.+ (re.union (str.to.re "666") (str.to.re "7"))) (re.++ (re.* (re.* (str.to.re "8"))) (re.++ (re.* (re.union (str.to.re "99") (str.to.re "a"))) (re.++ (re.+ (re.* (str.to.re "bb"))) (re.++ (re.* (re.+ (str.to.re "ccc"))) (re.++ (re.+ (re.+ (str.to.re "d"))) (re.++ (re.+ (re.+ (str.to.re "e"))) (re.+ (re.union (str.to.re "fff") (str.to.re "gg")))))))))))))))
(check-sat)